Crystal - Si16
1.0
7.4953318805774032 0.0000000000000000 0.0000000000000000
3.7476659402887025 6.4911478183754214 0.0000000000000000
3.7476659402887025 2.1637159394584740 6.1199128534100327
Si
16
Direct
0.0000000000000000 0.0000000000000000 0.0000000000000000
0.1250000000000000 0.1250000000000000 0.1250000000000000
0.0000000000000000 0.0000000000000000 0.5000000000000000
0.1250000000000000 0.1250000000000000 0.6250000000000000
0.0000000000000000 0.5000000000000000 0.0000000000000000
0.1250000000000000 0.6250000000000000 0.1250000000000000
0.0000000000000000 0.5000000000000000 0.5000000000000000
0.1250000000000000 0.6250000000000000 0.6250000000000000
0.5000000000000000 0.0000000000000000 0.0000000000000000
0.6250000000000000 0.1250000000000000 0.1250000000000000
0.5000000000000000 0.0000000000000000 0.5000000000000000
0.6250000000000000 0.1250000000000000 0.6250000000000000
0.5000000000000000 0.5000000000000000 0.0000000000000000
0.6250000000000000 0.6250000000000000 0.1250000000000000
0.5000000000000000 0.5000000000000000 0.5000000000000000
0.6250000000000000 0.6250000000000000 0.6250000000000000
