Crystal - Cu108
1.0
10.8300000000000001 0.0000000000000000 0.0000000000000000
0.0000000000000000 10.8300000000000001 0.0000000000000000
0.0000000000000000 0.0000000000000000 10.8300000000000001
Cu Ni
106 1
Direct
0.5000000000000000 0.5000000000000000 0.0000000000000000
0.5000000000000000 0.0000000000000000 0.5000000000000000
0.0000000000000000 0.5000000000000000 0.5000000000000000
0.0000000000000000 0.0000000000000000 0.0000000000000000
0.5000000000000000 0.5000000000000000 0.0000000000000000
0.5000000000000000 0.0000000000000000 0.5000000000000000
0.0000000000000000 0.5000000000000000 0.5000000000000000
0.0000000000000000 0.0000000000000000 0.0000000000000000
0.5000000000000000 0.5000000000000000 0.0000000000000000
0.5000000000000000 0.0000000000000000 0.5000000000000000
0.0000000000000000 0.5000000000000000 0.5000000000000000
0.0000000000000000 0.0000000000000000 0.0000000000000000
0.5000000000000000 0.5000000000000000 0.0000000000000000
0.5000000000000000 0.0000000000000000 0.5000000000000000
0.0000000000000000 0.5000000000000000 0.5000000000000000
0.0000000000000000 0.0000000000000000 0.0000000000000000
0.5000000000000000 0.5000000000000000 0.0000000000000000
0.5000000000000000 0.0000000000000000 0.5000000000000000
0.0000000000000000 0.5000000000000000 0.5000000000000000
0.0000000000000000 0.0000000000000000 0.0000000000000000
0.5000000000000000 0.5000000000000000 0.0000000000000000
0.5000000000000000 0.0000000000000000 0.5000000000000000
0.0000000000000000 0.5000000000000000 0.5000000000000000
0.0000000000000000 0.0000000000000000 0.0000000000000000
0.5000000000000000 0.5000000000000000 0.0000000000000000
0.5000000000000000 0.0000000000000000 0.5000000000000000
0.0000000000000000 0.5000000000000000 0.5000000000000000
0.0000000000000000 0.0000000000000000 0.0000000000000000
0.5000000000000000 0.5000000000000000 0.0000000000000000
0.5000000000000000 0.0000000000000000 0.5000000000000000
0.0000000000000000 0.5000000000000000 0.5000000000000000
0.0000000000000000 0.0000000000000000 0.0000000000000000
0.5000000000000000 0.5000000000000000 0.0000000000000000
0.5000000000000000 0.0000000000000000 0.5000000000000000
0.0000000000000000 0.5000000000000000 0.5000000000000000
0.0000000000000000 0.0000000000000000 0.0000000000000000
0.5000000000000000 0.5000000000000000 0.0000000000000000
0.5000000000000000 0.0000000000000000 0.5000000000000000
0.0000000000000000 0.5000000000000000 0.5000000000000000
0.0000000000000000 0.0000000000000000 0.0000000000000000
0.5000000000000000 0.5000000000000000 0.0000000000000000
0.5000000000000000 0.0000000000000000 0.5000000000000000
0.0000000000000000 0.5000000000000000 0.5000000000000000
0.0000000000000000 0.0000000000000000 0.0000000000000000
0.5000000000000000 0.5000000000000000 0.0000000000000000
0.5000000000000000 0.0000000000000000 0.5000000000000000
0.0000000000000000 0.5000000000000000 0.5000000000000000
0.0000000000000000 0.0000000000000000 0.0000000000000000
0.5000000000000000 0.5000000000000000 0.0000000000000000
0.5000000000000000 0.0000000000000000 0.5000000000000000
0.0000000000000000 0.5000000000000000 0.5000000000000000
0.0000000000000000 0.0000000000000000 0.0000000000000000
0.5000000000000000 0.5000000000000000 0.0000000000000000
0.5000000000000000 0.0000000000000000 0.5000000000000000
0.0000000000000000 0.5000000000000000 0.5000000000000000
0.0000000000000000 0.0000000000000000 0.0000000000000000
0.5000000000000000 0.5000000000000000 0.0000000000000000
0.5000000000000000 0.0000000000000000 0.5000000000000000
0.0000000000000000 0.5000000000000000 0.5000000000000000
0.0000000000000000 0.0000000000000000 0.0000000000000000
0.5000000000000000 0.5000000000000000 0.0000000000000000
0.5000000000000000 0.0000000000000000 0.5000000000000000
0.0000000000000000 0.5000000000000000 0.5000000000000000
0.0000000000000000 0.0000000000000000 0.0000000000000000
0.5000000000000000 0.5000000000000000 0.0000000000000000
0.5000000000000000 0.0000000000000000 0.5000000000000000
0.0000000000000000 0.5000000000000000 0.5000000000000000
0.0000000000000000 0.0000000000000000 0.0000000000000000
0.5000000000000000 0.5000000000000000 0.0000000000000000
0.5000000000000000 0.0000000000000000 0.5000000000000000
0.0000000000000000 0.5000000000000000 0.5000000000000000
0.0000000000000000 0.0000000000000000 0.0000000000000000
0.5000000000000000 0.5000000000000000 0.0000000000000000
0.5000000000000000 0.0000000000000000 0.5000000000000000
0.0000000000000000 0.5000000000000000 0.5000000000000000
0.0000000000000000 0.0000000000000000 0.0000000000000000
0.5000000000000000 0.5000000000000000 0.0000000000000000
0.5000000000000000 0.0000000000000000 0.5000000000000000
0.0000000000000000 0.5000000000000000 0.5000000000000000
0.0000000000000000 0.0000000000000000 0.0000000000000000
0.5000000000000000 0.5000000000000000 0.0000000000000000
0.5000000000000000 0.0000000000000000 0.5000000000000000
0.0000000000000000 0.5000000000000000 0.5000000000000000
0.0000000000000000 0.0000000000000000 0.0000000000000000
0.5000000000000000 0.5000000000000000 0.0000000000000000
0.5000000000000000 0.0000000000000000 0.5000000000000000
0.0000000000000000 0.5000000000000000 0.5000000000000000
0.0000000000000000 0.0000000000000000 0.0000000000000000
0.5000000000000000 0.5000000000000000 0.0000000000000000
0.5000000000000000 0.0000000000000000 0.5000000000000000
0.0000000000000000 0.5000000000000000 0.5000000000000000
0.0000000000000000 0.0000000000000000 0.0000000000000000
0.5000000000000000 0.5000000000000000 0.0000000000000000
0.5000000000000000 0.0000000000000000 0.5000000000000000
0.0000000000000000 0.5000000000000000 0.5000000000000000
0.0000000000000000 0.0000000000000000 0.0000000000000000
0.5000000000000000 0.5000000000000000 0.0000000000000000
0.5000000000000000 0.0000000000000000 0.5000000000000000
0.0000000000000000 0.5000000000000000 0.5000000000000000
0.0000000000000000 0.0000000000000000 0.0000000000000000
0.5000000000000000 0.5000000000000000 0.0000000000000000
0.5000000000000000 0.0000000000000000 0.5000000000000000
0.0000000000000000 0.5000000000000000 0.5000000000000000
0.0000000000000000 0.0000000000000000 0.0000000000000000
0.5000000000000000 0.5000000000000000 0.0000000000000000
0.5000000000000000 0.0000000000000000 0.5000000000000000
0.0000000000000000 0.5000000000000000 0.5000000000000000
